; benchmark generated from python API
(set-info :status unknown)
(declare-fun x_months () Int)
(declare-fun x_beta () Int)
(assert
 (<= (- 1200) x_months))
(assert
 (>= 1199 x_months))
(assert
 (>= x_beta 0))
(assert
 (let ((?x4346 (+ x_months 24003)))
 (let ((?x5010 (- ?x4346 (* (div (- ?x4346 1) 12) 12))))
 (let ((?x3611 (ite (or (= ?x5010 4) (= ?x5010 6) (= ?x5010 9) (= ?x5010 11)) 30 31)))
 (let (($x5340 (and (= (mod (div (- ?x4346 1) 12) 4) 0) (and (distinct (mod (div (- ?x4346 1) 12) 100) 0) true))))
 (let ((?x4930 (ite (or $x5340 (= (mod (div (- ?x4346 1) 12) 400) 0)) 29 28)))
 (< x_beta (ite (= ?x5010 2) ?x4930 ?x3611))))))))
(assert
 (let (($x2523 (and (= x_months (- (+ (* 2023 12) 1) 24003)) (<= 0 x_beta))))
 (or (> x_months (- (+ (* 2023 12) 1) 24003)) $x2523)))
(assert
 (let (($x5019 (and (= x_months (- (+ (* 2023 12) 12) 24003)) (>= 30 x_beta))))
 (or (< x_months (- (+ (* 2023 12) 12) 24003)) $x5019)))
(assert
 (let ((?x5056 (+ x_beta 1)))
(let ((?x5438 (+ (+ x_months 0) 24003)))
(let ((?x4229 (- ?x5438 (* (div (- ?x5438 1) 12) 12))))
(let ((?x4660 (ite (or (= ?x4229 4) (= ?x4229 6) (= ?x4229 9) (= ?x4229 11)) 30 31)))
(let (($x4952 (and (= (mod (div (- ?x5438 1) 12) 4) 0) (and (distinct (mod (div (- ?x5438 1) 12) 100) 0) true))))
(let (($x5268 (or $x4952 (= (mod (div (- ?x5438 1) 12) 400) 0))))
(let ((?x4945 (ite (= ?x4229 2) (ite $x5268 29 28) ?x4660)))
(let (($x4532 (> 1 ?x5056)))
(let ((?x5383 (ite $x4532 1 (ite (> ?x5056 ?x4945) ?x4945 ?x5056))))
(let ((?x3541 (ite (> 1 ?x5383) 1 (ite (> ?x5383 ?x4945) ?x4945 ?x5383))))
(let ((?x4632 (ite (= 2 ?x4229) (ite $x5268 31 31) (ite (= 1 ?x4229) (ite $x5268 0 0) 0))))
(let ((?x2206 (ite (= 4 ?x4229) (ite $x5268 91 90) (ite (= 3 ?x4229) (ite $x5268 60 59) ?x4632))))
(let ((?x5303 (ite (= 6 ?x4229) (ite $x5268 152 151) (ite (= 5 ?x4229) (ite $x5268 121 120) ?x2206))))
(let ((?x3149 (ite (= 8 ?x4229) (ite $x5268 213 212) (ite (= 7 ?x4229) (ite $x5268 182 181) ?x5303))))
(let ((?x4919 (ite (= 10 ?x4229) (ite $x5268 274 273) (ite (= 9 ?x4229) (ite $x5268 244 243) ?x3149))))
(let ((?x4329 (ite (= 12 ?x4229) (ite $x5268 335 334) (ite (= 11 ?x4229) (ite $x5268 305 304) ?x4919))))
(let ((?x5320 (+ (* 365 (- (div (- ?x5438 1) 12) 1)) (div (- (div (- ?x5438 1) 12) 1) 4))))
(let ((?x2017 (+ (- ?x5320 (div (- (div (- ?x5438 1) 12) 1) 100)) (div (- (div (- ?x5438 1) 12) 1) 400))))
(let ((?x5152 (+ (+ (- (+ (+ ?x2017 ?x4329) (- ?x3541 1)) 730179) 61) 730179)))
(let ((?x5138 (mod ?x5152 146097)))
(let ((?x5577 (div ?x5138 36524)))
(let ((?x2243 (ite (<= 4 ?x5577) 3 ?x5577)))
(let ((?x4989 (- ?x5138 (* ?x2243 36524))))
(let ((?x4380 (mod ?x4989 1461)))
(let ((?x3088 (div ?x4380 365)))
(let ((?x5610 (ite (<= 4 ?x3088) 3 ?x3088)))
(let ((?x5647 (+ (+ (* (div ?x5152 146097) 400) (* ?x2243 100)) (* (div ?x4989 1461) 4))))
(let ((?x4384 (+ (+ ?x5647 ?x5610) 1)))
(let (($x2082 (or (and (= (mod ?x4384 4) 0) (and (distinct (mod ?x4384 100) 0) true)) (= (mod ?x4384 400) 0))))
(let ((?x5267 (- ?x4380 (* ?x5610 365))))
(let ((?x4377 (ite $x2082 31 31)))
(let (($x5341 (>= ?x5267 ?x4377)))
(let ((?x5575 (ite $x5341 (+ (- ?x5267 ?x4377) 1) (+ (- ?x5267 (ite $x2082 0 0)) 1))))
(let ((?x5535 (ite $x2082 60 59)))
(let (($x5731 (>= ?x5267 ?x5535)))
(let ((?x5046 (ite $x2082 91 90)))
(let (($x4370 (>= ?x5267 ?x5046)))
(let ((?x1452 (ite $x4370 (+ (- ?x5267 ?x5046) 1) (ite $x5731 (+ (- ?x5267 ?x5535) 1) ?x5575))))
(let ((?x1435 (ite $x2082 121 120)))
(let (($x3489 (>= ?x5267 ?x1435)))
(let ((?x2258 (ite $x2082 152 151)))
(let (($x5317 (>= ?x5267 ?x2258)))
(let ((?x5421 (ite $x5317 (+ (- ?x5267 ?x2258) 1) (ite $x3489 (+ (- ?x5267 ?x1435) 1) ?x1452))))
(let ((?x5360 (ite $x2082 182 181)))
(let (($x2913 (>= ?x5267 ?x5360)))
(let ((?x2210 (ite $x2082 213 212)))
(let (($x4080 (>= ?x5267 ?x2210)))
(let ((?x4322 (ite $x4080 (+ (- ?x5267 ?x2210) 1) (ite $x2913 (+ (- ?x5267 ?x5360) 1) ?x5421))))
(let ((?x5324 (ite $x2082 244 243)))
(let (($x5892 (>= ?x5267 ?x5324)))
(let ((?x5162 (ite $x2082 274 273)))
(let (($x5634 (>= ?x5267 ?x5162)))
(let ((?x1531 (ite $x5634 (+ (- ?x5267 ?x5162) 1) (ite $x5892 (+ (- ?x5267 ?x5324) 1) ?x4322))))
(let ((?x1553 (ite $x2082 305 304)))
(let (($x5435 (>= ?x5267 ?x1553)))
(let ((?x5496 (ite $x2082 335 334)))
(let (($x3671 (>= ?x5267 ?x5496)))
(let ((?x4404 (ite $x3671 (+ (- ?x5267 ?x5496) 1) (ite $x5435 (+ (- ?x5267 ?x1553) 1) ?x1531))))
(let (($x5742 (= 61 0)))
(let ((?x4323 (+ (+ x_months 2) 24003)))
(let ((?x5067 (- ?x4323 (* (div (- ?x4323 1) 12) 12))))
(let ((?x5035 (ite (or (= ?x5067 4) (= ?x5067 6) (= ?x5067 9) (= ?x5067 11)) 30 31)))
(let (($x3719 (and (= (mod (div (- ?x4323 1) 12) 4) 0) (and (distinct (mod (div (- ?x4323 1) 12) 100) 0) true))))
(let (($x5344 (or $x3719 (= (mod (div (- ?x4323 1) 12) 400) 0))))
(let ((?x3494 (ite (= ?x5067 2) (ite $x5344 29 28) ?x5035)))
(let ((?x4389 (ite $x4532 1 (ite (> ?x5056 ?x3494) ?x3494 ?x5056))))
(let ((?x5192 (ite (> 1 ?x4389) 1 (ite (> ?x4389 ?x3494) ?x3494 ?x4389))))
(let ((?x4209 (ite (= 2 ?x5067) (ite $x5344 31 31) (ite (= 1 ?x5067) (ite $x5344 0 0) 0))))
(let ((?x4383 (ite (= 4 ?x5067) (ite $x5344 91 90) (ite (= 3 ?x5067) (ite $x5344 60 59) ?x4209))))
(let ((?x5826 (ite (= 6 ?x5067) (ite $x5344 152 151) (ite (= 5 ?x5067) (ite $x5344 121 120) ?x4383))))
(let ((?x4328 (ite (= 8 ?x5067) (ite $x5344 213 212) (ite (= 7 ?x5067) (ite $x5344 182 181) ?x5826))))
(let ((?x4119 (ite (= 10 ?x5067) (ite $x5344 274 273) (ite (= 9 ?x5067) (ite $x5344 244 243) ?x4328))))
(let ((?x5478 (ite (= 12 ?x5067) (ite $x5344 335 334) (ite (= 11 ?x5067) (ite $x5344 305 304) ?x4119))))
(let ((?x5781 (+ (* 365 (- (div (- ?x4323 1) 12) 1)) (div (- (div (- ?x4323 1) 12) 1) 4))))
(let ((?x4353 (+ (- ?x5781 (div (- (div (- ?x4323 1) 12) 1) 100)) (div (- (div (- ?x4323 1) 12) 1) 400))))
(let ((?x5282 (+ (+ (- (+ (+ ?x4353 ?x5478) (- ?x5192 1)) 730179) 0) 730179)))
(let ((?x855 (mod ?x5282 146097)))
(let ((?x5090 (div ?x855 36524)))
(let ((?x5229 (ite (<= 4 ?x5090) 3 ?x5090)))
(let ((?x577 (- ?x855 (* ?x5229 36524))))
(let ((?x4997 (mod ?x577 1461)))
(let ((?x5033 (div ?x4997 365)))
(let ((?x1861 (ite (<= 4 ?x5033) 3 ?x5033)))
(let ((?x4955 (+ (+ (* (div ?x5282 146097) 400) (* ?x5229 100)) (* (div ?x577 1461) 4))))
(let ((?x4487 (+ (+ ?x4955 ?x1861) 1)))
(let (($x5683 (or (and (= (mod ?x4487 4) 0) (and (distinct (mod ?x4487 100) 0) true)) (= (mod ?x4487 400) 0))))
(let ((?x3986 (- ?x4997 (* ?x1861 365))))
(let ((?x5059 (ite $x5683 31 31)))
(let (($x3687 (>= ?x3986 ?x5059)))
(let ((?x2358 (ite $x3687 (+ (- ?x3986 ?x5059) 1) (+ (- ?x3986 (ite $x5683 0 0)) 1))))
(let ((?x5579 (ite $x5683 60 59)))
(let (($x1481 (>= ?x3986 ?x5579)))
(let ((?x4359 (ite $x5683 91 90)))
(let (($x5850 (>= ?x3986 ?x4359)))
(let ((?x5135 (ite $x5850 (+ (- ?x3986 ?x4359) 1) (ite $x1481 (+ (- ?x3986 ?x5579) 1) ?x2358))))
(let ((?x5659 (ite $x5683 121 120)))
(let (($x4942 (>= ?x3986 ?x5659)))
(let ((?x5612 (ite $x5683 152 151)))
(let (($x5648 (>= ?x3986 ?x5612)))
(let ((?x1313 (ite $x5648 (+ (- ?x3986 ?x5612) 1) (ite $x4942 (+ (- ?x3986 ?x5659) 1) ?x5135))))
(let ((?x1513 (ite $x5683 182 181)))
(let (($x5779 (>= ?x3986 ?x1513)))
(let ((?x3691 (ite $x5683 213 212)))
(let (($x5206 (>= ?x3986 ?x3691)))
(let ((?x5474 (ite $x5206 (+ (- ?x3986 ?x3691) 1) (ite $x5779 (+ (- ?x3986 ?x1513) 1) ?x1313))))
(let ((?x5020 (ite $x5683 244 243)))
(let (($x5013 (>= ?x3986 ?x5020)))
(let ((?x5780 (ite $x5683 274 273)))
(let (($x4674 (>= ?x3986 ?x5780)))
(let ((?x2247 (ite $x4674 (+ (- ?x3986 ?x5780) 1) (ite $x5013 (+ (- ?x3986 ?x5020) 1) ?x5474))))
(let ((?x5239 (ite $x5683 305 304)))
(let (($x5081 (>= ?x3986 ?x5239)))
(let ((?x5384 (ite $x5683 335 334)))
(let (($x4419 (>= ?x3986 ?x5384)))
(let ((?x5243 (ite $x4419 (+ (- ?x3986 ?x5384) 1) (ite $x5081 (+ (- ?x3986 ?x5239) 1) ?x2247))))
(let (($x411 (= 0 0)))
(let ((?x1958 (ite $x3489 5 (ite $x4370 4 (ite $x5731 3 (ite $x5341 2 1))))))
(let ((?x5719 (ite $x5892 9 (ite $x4080 8 (ite $x2913 7 (ite $x5317 6 ?x1958))))))
(let ((?x5133 (ite $x3671 12 (ite $x5435 11 (ite $x5634 10 ?x5719)))))
(let ((?x4965 (+ (* (ite $x5742 (div (- ?x5438 1) 12) ?x4384) 12) (ite $x5742 ?x4229 ?x5133))))
(let ((?x5357 (ite $x4942 5 (ite $x5850 4 (ite $x1481 3 (ite $x3687 2 1))))))
(let ((?x5757 (ite $x5013 9 (ite $x5206 8 (ite $x5779 7 (ite $x5648 6 ?x5357))))))
(let ((?x5661 (+ (* (ite $x411 (div (- ?x4323 1) 12) ?x4487) 12) (ite $x411 ?x5067 (ite $x4419 12 (ite $x5081 11 (ite $x4674 10 ?x5757)))))))
(and (= (- ?x5661 24003) (- ?x4965 24003)) (= (- (ite $x411 ?x5192 ?x5243) 1) (- (ite $x5742 ?x3541 ?x4404) 1)))))))))))))))))))))))))))))))))))))))))))))))))))))))))))))))))))))))))))))))))))))))))))))))))))))))))))))))))))))))))))))))
(check-sat)
